\Problem name: 

Minimize
OBJROW: - x_D_T - x_E_T - x_F_T
Subject To
constr(0):  x_R1_A + x_R2_A - x_A_E - x_A_D = -0
constr(1):  x_R1_B + x_R2_B + x_R3_B - x_B_E - x_B_F - x_B_D = -0
constr(2):  x_R2_C + x_R3_C - x_C_E - x_C_F = -0
constr(3):  x_A_D + x_B_D - x_D_T = -0
constr(4):  x_A_E + x_B_E + x_C_E - x_E_T = -0
constr(5):  x_B_F + x_C_F - x_F_T = -0
constr(6):  x_R1_A <= 75
constr(7):  x_R1_B <= 65
constr(8):  x_R2_A <= 40
constr(9):  x_R2_B <= 50
constr(10):  x_R2_C <= 60
constr(11):  x_R3_B <= 80
constr(12):  x_R3_C <= 70
constr(13):  x_A_D <= 60
constr(14):  x_A_E <= 45
constr(15):  x_B_D <= 70
constr(16):  x_B_E <= 55
constr(17):  x_B_F <= 45
constr(18):  x_C_E <= 70
constr(19):  x_C_F <= 90
constr(20):  x_D_T <= 120
constr(21):  x_E_T <= 190
constr(22):  x_F_T <= 130
Bounds
End
